
  12    4
  10   10   10   10

   0   0   0   0   0   3 2 3 4 
   9  10  10  10  10   3 9 6 5 
   2  10  10  10  10   2 6 5 
   9  10  10  10  10   2 9 7 
   7  10  10  10  10   1 7 
   8  10  10  10  10   1 7 
   3  10  10  10  10   2 10 8 
   4  10  10  10  10   1 11 
   9  10  10  10  10   1 10 
  10  10  10  10  10   1 12
   4  10  10  10  10   1 12
   0   0   0   0   0   0 
